40 20
18 975
6 902
8 764
2 437
18 962
9 590
18 430
7 248
8 583
11 396
7 183
1 5
16 233
8 365
12 108
19 207
18 757
18 598
2 260
1 166
16 685
17 256
14 340
19 733
15 905
15 799
1 464
8 984
10 738
6 167
1 763
14 255
12 998
12 906
15 283
11 561
9 768
10 477
16 905
18 931
